(set-logic QF_BV)
(declare-fun _substvar_248_ () (_ BitVec 512))
(assert (and true true true true true true true true true true true true true true true true true true true true true true true true true true true true true true true true true true true true true true true true true true true true true true true true (not (= ((_ extract 383 256) _substvar_248_) ((_ extract 255 128) _substvar_248_))) true true true true))
(check-sat)
(exit)
